
--- Job M1_4_E1.gms Start 04/13/25 15:35:40 47.5.0 d6b95593 DEX-DEG x86 64bit/macOS
--- Applying:
    /Library/Frameworks/GAMS.framework/Versions/47/Resources/gmsprmun.txt
--- GAMS Parameters defined
    Input "/Users/pm.deoliveiradejes/Dropbox (Personal)/Maestria en Energia (MISE)/MISE_E4/MISE_E4-main/M1.4/Ejemplo_1_MILP/Gams/M1_4_E1.gms"
    PageSize 0
    ScrDir "/Users/pm.deoliveiradejes/Dropbox (Personal)/Maestria en Energia (MISE)/MISE_E4/MISE_E4-main/M1.4/Ejemplo_1_MILP/Gams/225a/"
    SysDir /Library/Frameworks/GAMS.framework/Versions/47/Resources/
    LogOption 3
    ErrMsg 1
    ErrorLog 99
    IDE 1
    LstTitleLeftAligned 1
Licensee: Academic User                                  G240823+0003Ac-GEN
          pm.deoliveiradejes@uniandes.edu.co                      CLA100108
          225a/gamslice.dat
          node:67583901 mem:16 cores:4 ipport:64718 v:2                    
          Community license for demonstration and instructional purposes only
Processor information: 1 socket(s), 4 core(s), and 8 thread(s) available
GAMS 47.5.0   Copyright (C) 1987-2024 GAMS Development. All rights reserved
--- Starting compilation
--- M1_4_E1.gms(83) 3 Mb
--- Starting execution: elapsed 0:00:00.010
--- M1_4_E1.gms(67) 4 Mb
--- Generating MIP model modelCe
--- M1_4_E1.gms(83) 4 Mb
---   169 rows  170 columns  505 non-zeroes
---   48 discrete-columns
--- Range statistics (absolute non-zero finite values)
--- RHS       [min, max] : [ 3.000E+02, 5.000E+03] - Zero values observed as well
--- Bound     [min, max] : [ 1.000E+00, 2.700E+03] - Zero values observed as well
--- Matrix    [min, max] : [ 9.500E-01, 5.000E+03]
--- Executing CPLEX (Solvelink=2): elapsed 0:00:00.021

IBM ILOG CPLEX   47.5.0 d6b95593 Aug 29, 2024          DEG x86 64bit/macOS    

*** This solver runs with a community license. No commercial use.
--- GMO setup time: 0.00s
--- GMO memory 0.54 Mb (peak 0.54 Mb)
--- Dictionary memory 0.00 Mb
--- Cplex 22.1.1.0 link memory 0.01 Mb (peak 0.02 Mb)
--- Starting Cplex

Version identifier: 22.1.1.0 | 2022-11-28 | 9160aff4d
CPXPARAM_Advance                                 0
CPXPARAM_MIP_Display                             4
CPXPARAM_MIP_Pool_Capacity                       0
CPXPARAM_MIP_Tolerances_AbsMIPGap                0
Generic callback                                 0x50
Tried aggregator 2 times.
MIP Presolve eliminated 40 rows and 42 columns.
MIP Presolve modified 1 coefficients.
Aggregator did 20 substitutions.
Reduced MIP has 108 rows, 108 columns, and 294 nonzeros.
Reduced MIP has 28 binaries, 0 generals, 0 SOSs, and 0 indicators.
Presolve time = 0.00 sec. (0.29 ticks)
Found incumbent of value -452939.694508 after 0.00 sec. (0.46 ticks)
Probing fixed 0 vars, tightened 13 bounds.
Probing time = 0.00 sec. (0.03 ticks)
Tried aggregator 1 time.
Detecting symmetries...
MIP Presolve modified 19 coefficients.
Reduced MIP has 108 rows, 108 columns, and 294 nonzeros.
Reduced MIP has 28 binaries, 0 generals, 0 SOSs, and 0 indicators.
Presolve time = 0.00 sec. (0.17 ticks)
Probing time = 0.00 sec. (0.02 ticks)
Clique table members: 6.
MIP emphasis: balance optimality and feasibility.
MIP search method: dynamic search.
Parallel mode: deterministic, using up to 8 threads.
Parallel mode: deterministic, using up to 2 threads for parallel tasks at root LP.
Tried aggregator 1 time.
Aggregator did 28 substitutions.
Reduced LP has 80 rows, 80 columns, and 238 nonzeros.
Presolve time = 0.00 sec. (0.07 ticks)
Initializing dual steep norms . . .

Iteration log . . .
Iteration:     1   Dual objective     =        -67432.778032
Initializing dual steep norms . . .

Iteration log . . .
Iteration:     1   Dual objective     =       -118393.920633
Root relaxation solution time = 0.00 sec. (0.41 ticks)

        Nodes                                         Cuts/
   Node  Left     Objective  IInf  Best Integer    Best Bound    ItCnt     Gap

*     0+    0                      -452939.6945   -39672.0000            91.24%
Found incumbent of value -452939.694508 after 0.01 sec. (1.20 ticks)
*     0+    0                      -126544.5000   -39672.0000            68.65%
Found incumbent of value -126544.500000 after 0.01 sec. (1.20 ticks)
*     0     0      integral     0  -118393.9206  -118393.9206       42    0.00%
Elapsed time = 0.01 sec. (1.24 ticks, tree = 0.00 MB)
Found incumbent of value -118393.920633 after 0.01 sec. (1.24 ticks)

Root node processing (before b&c):
  Real time             =    0.01 sec. (1.24 ticks)
Parallel b&c, 8 threads:
  Real time             =    0.00 sec. (0.00 ticks)
  Sync time (average)   =    0.00 sec.
  Wait time (average)   =    0.00 sec.
                          ------------
Total (root+branch&cut) =    0.01 sec. (1.24 ticks)

--- MIP status (101): integer optimal solution.
--- Cplex Time: 0.01sec (det. 1.24 ticks)

--- Returning a primal only solution to GAMS (marginals all set to NA).
--- Fixing integer variables and solving final LP...

Version identifier: 22.1.1.0 | 2022-11-28 | 9160aff4d
CPXPARAM_Advance                                 2
CPXPARAM_MIP_Display                             4
CPXPARAM_MIP_Pool_Capacity                       0
CPXPARAM_MIP_Tolerances_AbsMIPGap                0
Tried aggregator 1 time.
LP Presolve eliminated 97 rows and 98 columns.
Aggregator did 44 substitutions.
Reduced LP has 27 rows, 28 columns, and 76 nonzeros.
Presolve time = 0.00 sec. (0.13 ticks)
Initializing dual steep norms . . .

Iteration log . . .
Iteration:     1   Dual infeasibility =             0.000000
Iteration:     2   Dual objective     =       -114686.100000

--- Fixed MIP status (1): optimal.
--- Cplex Time: 0.00sec (det. 0.27 ticks)


Proven optimal solution
MIP Solution:      -118393.920633    (42 iterations, 0 nodes)
Final Solve:       -118393.920633    (28 iterations)

Best possible:     -118393.920633
Absolute gap:            0.000000
Relative gap:            0.000000

--- Reading solution for model modelCe
--- Executing after solve: elapsed 0:00:00.235
--- GDX File (execute_unload) /Users/pm.deoliveiradejes/Dropbox (Personal)/Maestria en Energia (MISE)/MISE_E4/MISE_E4-main/M1.4/Ejemplo_1_MILP/Gams/Results M1_4_E1.gdx
*** Status: Normal completion
--- Job M1_4_E1.gms Stop 04/13/25 15:35:40 elapsed 0:00:00.236
